33D32945 STP File, STP Format Version 1.0

SECTION Comments
Name "cube_n11_d2_s36"
Problem "Euclidean Steiner Tree Problem"
Remark "Generated with STPGenerator. 2 dimensions."
END

SECTION Graph
Nodes 11
END

SECTION Coordinates
DD 0 0.3812597861 0.3492478469
DD 1 0.8728369269 0.9995752056
DD 2 0.5993793447 0.9228681605
DD 3 0.4677818946 0.0902298559
DD 4 0.4658759178 0.5137684199
DD 5 0.8042997703 0.7905323886
DD 6 0.4063076491 0.8204223732
DD 7 0.1528823809 0.9984735842
DD 8 0.4864156537 0.4601904710
DD 9 0.3998939984 0.2654632643
DD 10 0.5413149840 0.3868324786
END
